
Gurobi 10.0.3 (linux64, gurobi_cl) logging started Thu Nov  9 11:47:37 2023

Set parameter Username
Set parameter TimeLimit to value 3600
Set parameter LogFile to value "RCPSP_1130.log"
Set parameter Threads to value 32
Academic license - for non-commercial use only - expires 2024-11-06
Using license file /home/jrivera6/gurobi-licenses/v1003/compute-0-36/gurobi.lic

Gurobi Optimizer version 10.0.3 build v10.0.3rc0 (linux64)
Copyright (c) 2023, Gurobi Optimization, LLC

Read MPS format model from file RCPSP_1130.mps
Reading time = 0.06 seconds
RCPSP_1130: 42947 rows, 17020 columns, 134581 nonzeros

CPU model: Intel(R) Xeon(R) Gold 6130 CPU @ 2.10GHz, instruction set [SSE2|AVX|AVX2|AVX512]
Thread count: 32 physical cores, 32 logical processors, using up to 32 threads

Optimize a model with 42947 rows, 17020 columns and 134581 nonzeros
Model fingerprint: 0x022d1fe6
Variable types: 92 continuous, 16928 integer (16928 binary)
Coefficient statistics:
  Matrix range     [1e+00, 5e+02]
  Objective range  [1e+00, 1e+00]
  Bounds range     [1e+00, 1e+00]
  RHS range        [1e+00, 5e+02]
Presolve removed 8607 rows and 1876 columns (presolve time = 5s) ...
Presolve removed 13190 rows and 3539 columns
Presolve time: 8.10s
Presolved: 29757 rows, 13481 columns, 96992 nonzeros
Variable types: 91 continuous, 13390 integer (13390 binary)

Root simplex log...

Iteration    Objective       Primal Inf.    Dual Inf.      Time
       0    8.1000000e+01   1.052602e+05   0.000000e+00      8s
    4587    8.1000000e+01   0.000000e+00   0.000000e+00      9s

Root relaxation: objective 8.100000e+01, 4587 iterations, 0.35 seconds (0.06 work units)
Total elapsed time = 10.26s

    Nodes    |    Current Node    |     Objective Bounds      |     Work
 Expl Unexpl |  Obj  Depth IntInf | Incumbent    BestBd   Gap | It/Node Time

     0     0   81.00000    0  132          -   81.00000      -     -   11s
     0     0   81.00000    0  132          -   81.00000      -     -   11s
     0     0   81.00000    0  680          -   81.00000      -     -   42s
     0     0   81.00000    0  739          -   81.00000      -     -   43s
     0     0   81.00000    0  743          -   81.00000      -     -   44s
     0     0   81.00000    0  704          -   81.00000      -     -   45s
     0     0   81.00000    0  711          -   81.00000      -     -   46s
     0     0   81.00000    0   52          -   81.00000      -     -   58s
     0     0   81.00000    0   64          -   81.00000      -     -   58s
     0     0   81.00000    0   45          -   81.00000      -     -   67s
     0     0   81.00000    0  288          -   81.00000      -     -   70s
     0     0   81.00000    0  117          -   81.00000      -     -   78s
     0     0   81.00000    0  114          -   81.00000      -     -   78s
     0     0   81.00000    0   28          -   81.00000      -     -   83s
     0     0   81.00000    0   65          -   81.00000      -     -   85s
     0     0   81.00000    0  181          -   81.00000      -     -   90s
     0     0   81.00000    0  208          -   81.00000      -     -   92s
     0     0   81.00000    0  202          -   81.00000      -     -   92s
     0     0   81.00000    0   42          -   81.00000      -     -   99s
     0     0   81.00000    0  294          -   81.00000      -     -  102s
     0     0   81.00000    0  256          -   81.00000      -     -  102s
     0     0   81.00000    0  254          -   81.00000      -     -  102s
     0     0   81.00000    0  120          -   81.00000      -     -  107s
     0     0   81.00000    0  330          -   81.00000      -     -  108s
     0     0   81.00000    0  128          -   81.00000      -     -  117s
     0     0   81.00000    0  118          -   81.00000      -     -  118s
     0     0   81.00000    0   90          -   81.00000      -     -  121s
     0     2   81.00000    0   90          -   81.00000      -     -  136s
     1     4   81.00000    1   89          -   81.00000      -  1150  142s
     3     8   81.00000    2  248          -   81.00000      -   637  154s
     7    14   81.00000    3  209          -   81.00000      -   500  165s
    15    25   81.00000    4  222          -   81.00000      -   399  176s
    29    39   81.00000    5  216          -   81.00000      -   362  186s
    54    56   81.00000    6  246          -   81.00000      -   256  197s
    86    72   81.00000    7  233          -   81.00000      -   237  203s
   118    89   81.00000    8  231          -   81.00000      -   185  206s
   150   115   81.00000    9  242          -   81.00000      -   147  210s
   182   146   81.00000   10  123          -   81.00000      -   144  236s
   256   210   81.00000   12  123          -   81.00000      -   145  258s
   299   245   81.00000   13  122          -   81.00000      -   141  262s
   343   274   81.00000   14  122          -   81.00000      -   131  267s
   386   317   81.00000   15  120          -   81.00000      -   123  271s
   438   370   81.00000   16  119          -   81.00000      -   110  277s
   494   442   81.00000   17   99          -   81.00000      -   100  280s
   657   638   81.00000   19  181          -   81.00000      -  79.3  287s
   879   840   84.00000   21  247          -   81.00000      -  62.2  295s
  1123  1121   84.00000   23  213          -   81.00000      -  51.8  301s
  1279  1274   84.00000   24  211          -   81.00000      -  47.2  305s
  1606  1578   84.00000   31  284          -   81.00000      -  41.2  313s
  1763  1727   84.00000   32  284          -   81.00000      -  39.2  317s
  1936  1884   84.00000   33  284          -   81.00000      -  37.4  321s
  2112  1978   84.00000   39  278          -   81.00000      -  36.1  349s
  2220  2152   84.00000   40  278          -   81.00000      -  39.5  354s
  2401  2289   84.00000   54  355          -   81.00000      -  38.3  374s
  2545  2444   84.00000   55  352          -   81.00000      -  40.1  379s
  2727  2667   84.00000   56  347          -   81.00000      -  39.2  384s
  2970  2816   84.00000   68  466          -   81.00000      -  37.7  397s
  3126  2985   86.00000   68  412          -   81.00000      -  39.2  403s
  3320  3158   84.00000   69  462          -   81.00000      -  38.9  409s
  3529  3370   85.50000   70  429          -   81.00000      -  38.5  418s
  3786  3561   86.00000   73  416          -   81.00000      -  38.1  425s
  4014  3757   86.00000   74  414          -   81.00000      -  38.1  454s
  4270  3869   90.00000   78  350          -   81.00000      -  39.2  467s
  4427  4094   90.00000   83  389          -   81.00000      -  40.4  475s
  4696  4284   90.00000  110  345          -   81.00000      -  39.9  520s
  4932  4466   90.00000  120  366          -   81.00000      -  43.0  526s
  5152  4699   90.00000  122  370          -   81.00000      -  43.3  544s
  5432  4937   92.00000  137  402          -   81.00000      -  44.0  559s
  5733  4938   91.00000  111   90          -   81.00000      -  44.4  643s
  5734  4939  100.00000   81   90          -   81.00000      -  44.4  645s
  5735  4939   96.00000   64   49          -   81.00000      -  44.4 1206s
  5736  4940  100.00000   47  149          -   81.00000      -  44.4 1343s
  5737  4941   96.00000  122  277          -   81.00000      -  44.4 1351s
  5738  4941   88.00000   53   48          -   81.00000      -  44.4 1613s
  5739  4942   93.00000   20  212          -   81.00000      -  44.4 1628s
  5740  4943   97.00000   88   63          -   81.00000      -  44.4 1674s
  5741  4943   98.00000   78  211          -   81.00000      -  44.4 1731s
  5742  4944   97.00000  151   59          -   81.00000      -  44.3 1736s
  5744  4945   87.00000   38   53          -   81.00000      -  44.3 1759s
  5745  4946   99.00000  132  152          -   81.00000      -  44.3 1760s
  5746  4947  101.01386   69   75          -   81.00000      -  44.3 1766s
  5748  4948   90.00000  114  368          -   81.00000      -  44.3 1847s
  5749  4949   97.00000  121   82          -   81.00000      -  44.3 1876s
  5750  4949   96.00000   82   82          -   81.00000      -  44.3 1901s
  5751  4953   81.00000   10   71          -   81.00000      -  10.6 3956s

Cutting planes:
  Gomory: 27
  Cover: 34
  Implied bound: 54
  Projected implied bound: 2
  Clique: 4
  MIR: 42
  StrongCG: 6
  Flow cover: 191
  Zero half: 7
  RLT: 13
  Relax-and-lift: 170

Explored 5753 nodes (378215 simplex iterations) in 4320.39 seconds (53.98 work units)
Thread count was 32 (of 32 available processors)

Solution count 0

Time limit reached
Best objective -, best bound 8.100000000000e+01, gap -

Unable to retrieve attribute 'X'

